NAME : random530870
COMMENT: random generated with id 530870
TYPE : TSP
DIMENSION : 10
EDGE_WEIGHT_TYPE : EUC_2D
NODE_COORD_SECTION
1 19.752930 3.670940
2 15.722117 7.186360
3 3.233028 2.779875
4 1.539326 16.236348
5 1.324731 11.431458
6 15.880190 12.716994
7 3.784563 19.338566
8 16.854102 14.731969
9 7.885816 17.826498
10 17.283574 7.095013
EOF
